
Gurobi 9.5.2 (mac64[arm], Python) logging started Sat Sep 17 11:39:25 2022

Set parameter Username
Set parameter LogFile to value "gurobi.log"
Academic license - for non-commercial use only - expires 2022-12-08
